(set-info :Origin "This instance was generated by: BanditFuzz-- an RL fuzzer for SMT solvers" )
(set-info :Author "Joe Scott, Fed Mora, Vijay Ganesh" )
(set-info :Contact "Joe Scott, joseph.scott@uwaterloo.ca")
; solvers/z3.sh
; 	time => 0.22371912002563477
; 	answer => err
; solvers/bitwuzla.sh
; 	time => 0.1603400707244873
; 	answer => err
; solvers/cvc4.sh
; 	time => 0.1843574047088623
; 	answer => err
(set-logic QF_BV)
(declare-const bool_0 Bool)
(declare-const bool_1 Bool)
(declare-const bool_2 Bool)
(declare-const bool_3 Bool)
(declare-const bool_4 Bool)
(declare-const bv_0 (_ BitVec 8))
(declare-const bv_1 (_ BitVec 8))
(declare-const bv_2 (_ BitVec 8))
(declare-const bv_3 (_ BitVec 8))
(declare-const bv_4 (_ BitVec 8))
(assert (=> (bvult (bvadd #x00000013  #x000000b9 ) (bvor bv_0 bv_0)) (=> (bvsgt #x000000b5  bv_4) (bvugt #x0000002e  #x00000079 ))))
(assert (not (xor (bvsgt bv_0 bv_0) (bvslt #x0000004e  bv_2))))
(assert (bvsgt (bvashr (bvsrem #x0000005f  bv_1) (bvudiv #x000000dc  #x00000029 )) (bvurem (bvlshr #x00000031  #x00000035 ) (bvnor #x000000d2  #x000000e6 ))))
(assert (bvslt (bvsub (bvor #x00000057  #x00000083 ) (bvurem #x0000004b  #x000000e6 )) (bvor (bvand #x000000b6  #x000000b0 ) (bvand #x000000bc  #x00000070 ))))
(assert (bvult (bvshl (bvadd bv_2 #x000000cd ) (bvsmod bv_1 bv_2)) (bvnor (bvand #x000000ca  #x0000006a ) (bvxnor bv_0 bv_2))))
(check-sat)
(exit)
